NAME : elipse2
COMMENT : (Augerat et al, No of trucks: 5, Optimal value: 672)
TYPE : CVRP
DIMENSION : 65
EDGE_WEIGHT_TYPE : EUC_2D 
CAPACITY : 100
NODE_COORD_SECTION 
 1 0 0  
 2 -10.0 0.0
 3 -9.375 55677.6436283
 4 -8.75 77459.6669241
 5 -8.125 93273.7905309
 6 -7.5 105830.052443
 7 -6.875 116189.500386
 8 -6.25 124899.959968
 9 -5.625 132287.565553
 10 -5.0 138564.064606
 11 -4.375 143874.945699
 12 -3.75 148323.969742
 13 -3.125 151986.841536
 14 -2.5 154919.333848
 15 -1.875 157162.336455
 16 -1.25 158745.078664
 17 -0.625 159687.194227
 18 0.0 160000.0
 19 0.625 159687.194227
 20 1.25 158745.078664
 21 1.875 157162.336455
 22 2.5 154919.333848
 23 3.125 151986.841536
 24 3.75 148323.969742
 25 4.375 143874.945699
 26 5.0 138564.064606
 27 5.625 132287.565553
 28 6.25 124899.959968
 29 6.875 116189.500386
 30 7.5 105830.052443
 31 8.125 93273.7905309
 32 8.75 77459.6669241
 33 9.375 55677.6436283
 34 10.0 0.0
 35 9.375 -55677.6436283
 36 8.75 -77459.6669241
 37 8.125 -93273.7905309
 38 7.5 -105830.052443
 39 6.875 -116189.500386
 40 6.25 -124899.959968
 41 5.625 -132287.565553
 42 5.0 -138564.064606
 43 4.375 -143874.945699
 44 3.75 -148323.969742
 45 3.125 -151986.841536
 46 2.5 -154919.333848
 47 1.875 -157162.336455
 48 1.25 -158745.078664
 49 0.625 -159687.194227
 50 0.0 -160000.0
 51 -0.625 -159687.194227
 52 -1.25 -158745.078664
 53 -1.875 -157162.336455
 54 -2.5 -154919.333848
 55 -3.125 -151986.841536
 56 -3.75 -148323.969742
 57 -4.375 -143874.945699
 58 -5.0 -138564.064606
 59 -5.625 -132287.565553
 60 -6.25 -124899.959968
 61 -6.875 -116189.500386
 62 -7.5 -105830.052443
 63 -8.125 -93273.7905309
 64 -8.75 -77459.6669241
 65 -9.375 -55677.6436283
 DEMAND_SECTION 
1 0
2 90
3 90
4 90
5 90
6 90
7 90
8 90
9 90
10 90
11 90
12 90
13 90
14 90
15 90
16 90
17 90
18 90
19 90
20 90
21 90
22 90
23 90
24 90
25 90
26 90
27 90
28 90
29 90
30 90
31 90
32 90
33 90
34 10
35 10
36 10
37 10
38 10
39 10
40 10
41 10
42 10
43 10
44 10
45 10
46 10
47 10
48 10
49 10
50 10
51 10
52 10
53 10
54 10
55 10
56 10
57 10
58 10
59 10
60 10
61 10
62 10
63 10
64 10
65 10
DEPOT_SECTION 
 1  
 -1  
EOF 
